120 150

51
40
59
58
48
55
51
44
48
53
49
44
49
53
60
42
54
44
52
48
48
44
46
60
54
52
52
44
54
50
57
44
46
60
44
57
49
57
50
44
49
45
56
44
48
58
60
60
57
46
48
52
54
49
50
47
51
46
53
56
48
49
58
49
57
47
52
47
51
52
40
58
46
54
53
44
51
52
52
44
54
47
43
49
57
60
40
57
50
50
44
55
48
47
43
44
55
51
43
48
49
53
43
49
56
53
44
53
60
42
51
50
49
48
58
51
45
43
42
60